benchmarks/Factorization/cnf/factorization12.cnf
c Qdimacs file from skolem function generator
p cnf 219 714
c a 207 208 209 210 211 212 213 214 215 216 217 218 0
c e 195 196 197 198 199 200 201 202 203 204 205 206 1 2 3 4 5 6 7 8 9 10 11 12 13 14 15 16 17 18 19 20 21 22 23 24 25 26 27 28 29 30 31 32 33 34 35 36 37 38 39 40 41 42 43 44 45 46 47 48 49 50 51 52 53 54 55 56 57 58 59 60 61 62 63 64 65 66 67 68 69 70 71 72 73 74 75 76 77 78 79 80 81 82 83 84 85 86 87 88 89 90 91 92 93 94 95 96 97 98 99 100 101 102 103 104 105 106 107 108 109 110 111 112 113 114 115 116 117 118 119 120 121 122 123 124 125 126 127 128 129 130 131 132 133 134 135 136 137 138 139 140 141 142 143 144 145 146 147 148 149 150 151 152 153 154 155 156 157 158 159 160 161 162 163 164 165 166 167 168 169 170 171 172 173 174 175 176 177 178 179 180 181 182 183 184 185 186 187 188 189 190 191 192 193 194 219 0
4 5 150 154 -156 0
-4 156 0
-4 -154 0
-4 -5 0
-4 -150 0
5 208 -6 0
5 -208 6 0
-5 -208 -6 0
-5 208 6 0
6 -7 -145 0
6 7 145 0
-6 7 -145 0
-6 -7 145 0
7 8 122 0
-7 -8 0
-7 -122 0
8 -199 -206 -9 0
-8 199 0
-8 206 0
-8 9 0
9 -10 -117 0
9 10 117 0
-9 10 -117 0
-9 -10 117 0
10 11 94 0
-10 -11 0
-10 -94 0
11 -199 -205 -12 0
-11 199 0
-11 205 0
-11 12 0
12 -13 -89 0
12 13 89 0
-12 13 -89 0
-12 -13 89 0
13 14 66 0
-13 -14 0
-13 -66 0
14 -199 -204 -15 0
-14 199 0
-14 204 0
-14 15 0
15 -16 -64 0
15 16 64 0
-15 16 -64 0
-15 -16 64 0
16 17 39 0
-16 -17 0
-16 -39 0
17 -199 -203 -18 0
-17 199 0
-17 203 0
-17 18 0
18 19 -20 0
18 201 -19 20 0
18 199 -19 20 0
-18 19 20 0
-18 -19 -20 0
-18 -199 -201 20 0
19 -200 -202 0
-19 200 0
-19 202 0
20 21 36 0
-20 -21 0
-20 -36 0
21 22 23 0
-21 -22 0
-21 -23 0
22 -198 -199 -201 -202 0
-22 202 0
-22 198 0
-22 201 0
-22 199 0
23 24 -33 0
-23 -24 0
-23 33 0
24 25 26 0
-24 -25 0
-24 -26 0
25 -197 -198 -201 -202 0
-25 202 0
-25 197 0
-25 201 0
-25 198 0
26 27 -30 0
-26 -27 0
-26 30 0
27 28 29 0
-27 -28 0
-27 -29 0
28 -195 -196 -201 -202 0
-28 202 0
-28 195 0
-28 201 0
-28 196 0
29 -196 -197 -201 -202 0
-29 202 0
-29 196 0
-29 201 0
-29 197 0
30 31 -32 0
30 -31 32 0
-30 -31 -32 0
-30 31 32 0
31 -198 -201 0
-31 198 0
-31 201 0
32 -197 -202 0
-32 197 0
-32 202 0
33 34 -35 0
33 -34 35 0
-33 -34 -35 0
-33 34 35 0
34 -199 -201 0
-34 199 0
-34 201 0
35 -198 -202 0
-35 198 0
-35 202 0
36 -37 -38 0
36 37 38 0
-36 37 -38 0
-36 -37 38 0
37 -199 -202 0
-37 199 0
-37 202 0
38 -200 -201 0
-38 200 0
-38 201 0
39 40 -62 0
-39 -40 0
-39 62 0
40 41 43 0
-40 -41 0
-40 -43 0
41 -198 -203 -42 0
-41 198 0
-41 203 0
-41 42 0
42 21 -36 0
42 -21 36 0
-42 -21 -36 0
-42 21 36 0
43 44 -60 0
-43 -44 0
-43 60 0
44 45 47 0
-44 -45 0
-44 -47 0
45 -197 -203 -46 0
-45 197 0
-45 203 0
-45 46 0
46 -24 -33 0
46 24 33 0
-46 24 -33 0
-46 -24 33 0
47 48 -58 0
-47 -48 0
-47 58 0
48 49 51 0
-48 -49 0
-48 -51 0
49 -196 -203 -50 0
-49 196 0
-49 203 0
-49 50 0
50 -27 -30 0
50 27 30 0
-50 27 -30 0
-50 -27 30 0
51 -52 -56 0
-51 52 0
-51 56 0
52 -195 -203 -53 0
-52 195 0
-52 203 0
-52 53 0
53 28 -54 55 0
53 -28 -54 -55 0
53 28 54 -55 0
-53 -28 55 0
-53 -28 54 0
-53 54 55 0
-53 28 -54 -55 0
54 -197 -201 0
-54 197 0
-54 201 0
55 -196 -202 0
-55 196 0
-55 202 0
56 50 -57 0
56 -50 57 0
-56 -50 -57 0
-56 50 57 0
57 -196 -203 0
-57 196 0
-57 203 0
58 46 -59 0
58 -46 59 0
-58 -46 -59 0
-58 46 59 0
59 -197 -203 0
-59 197 0
-59 203 0
60 42 -61 0
60 -42 61 0
-60 -42 -61 0
-60 42 61 0
61 -198 -203 0
-61 198 0
-61 203 0
62 63 -18 0
62 -63 18 0
-62 -63 -18 0
-62 63 18 0
63 -199 -203 0
-63 199 0
-63 203 0
64 203 -65 0
64 -200 -203 65 0
-64 200 -203 0
-64 203 65 0
-64 -203 -65 0
65 -200 -202 -20 0
65 -200 -202 -34 0
-65 200 0
-65 202 0
-65 34 20 0
66 67 -87 0
-66 -67 0
-66 87 0
67 68 70 0
-67 -68 0
-67 -70 0
68 -198 -204 -69 0
-68 198 0
-68 204 0
-68 69 0
69 -40 -62 0
69 40 62 0
-69 40 -62 0
-69 -40 62 0
70 71 -85 0
-70 -71 0
-70 85 0
71 72 74 0
-71 -72 0
-71 -74 0
72 -197 -204 -73 0
-72 197 0
-72 204 0
-72 73 0
73 -44 -60 0
73 44 60 0
-73 44 -60 0
-73 -44 60 0
74 75 -83 0
-74 -75 0
-74 83 0
75 76 78 0
-75 -76 0
-75 -78 0
76 -196 -204 -77 0
-76 196 0
-76 204 0
-76 77 0
77 -48 -58 0
77 48 58 0
-77 48 -58 0
-77 -48 58 0
78 -79 -81 0
-78 79 0
-78 81 0
79 -195 -204 -80 0
-79 195 0
-79 204 0
-79 80 0
80 52 -56 0
80 -52 56 0
-80 -52 -56 0
-80 52 56 0
81 77 -82 0
81 -77 82 0
-81 -77 -82 0
-81 77 82 0
82 -196 -204 0
-82 196 0
-82 204 0
83 73 -84 0
83 -73 84 0
-83 -73 -84 0
-83 73 84 0
84 -197 -204 0
-84 197 0
-84 204 0
85 86 -69 0
85 -86 69 0
-85 -86 -69 0
-85 86 69 0
86 -198 -204 0
-86 198 0
-86 204 0
87 88 -15 0
87 -88 15 0
-87 -88 -15 0
-87 88 15 0
88 -199 -204 0
-88 199 0
-88 204 0
89 -90 -91 0
89 90 91 0
-89 90 -91 0
-89 -90 91 0
90 -200 -204 0
-90 200 0
-90 204 0
91 92 93 0
-91 -92 0
-91 -93 0
92 -203 -65 0
-92 203 0
-92 65 0
93 16 -64 0
-93 -16 0
-93 64 0
94 95 -115 0
-94 -95 0
-94 115 0
95 96 98 0
-95 -96 0
-95 -98 0
96 -198 -205 -97 0
-96 198 0
-96 205 0
-96 97 0
97 -67 -87 0
97 67 87 0
-97 67 -87 0
-97 -67 87 0
98 99 -113 0
-98 -99 0
-98 113 0
99 100 102 0
-99 -100 0
-99 -102 0
100 -197 -205 -101 0
-100 197 0
-100 205 0
-100 101 0
101 -71 -85 0
101 71 85 0
-101 71 -85 0
-101 -71 85 0
102 103 -111 0
-102 -103 0
-102 111 0
103 104 106 0
-103 -104 0
-103 -106 0
104 -196 -205 -105 0
-104 196 0
-104 205 0
-104 105 0
105 -75 -83 0
105 75 83 0
-105 75 -83 0
-105 -75 83 0
106 -107 -109 0
-106 107 0
-106 109 0
107 -195 -205 -108 0
-107 195 0
-107 205 0
-107 108 0
108 79 -81 0
108 -79 81 0
-108 -79 -81 0
-108 79 81 0
109 105 -110 0
109 -105 110 0
-109 -105 -110 0
-109 105 110 0
110 -196 -205 0
-110 196 0
-110 205 0
111 112 -101 0
111 -112 101 0
-111 -112 -101 0
-111 112 101 0
112 -197 -205 0
-112 197 0
-112 205 0
113 114 -97 0
113 -114 97 0
-113 -114 -97 0
-113 114 97 0
114 -198 -205 0
-114 198 0
-114 205 0
115 116 -12 0
115 -116 12 0
-115 -116 -12 0
-115 116 12 0
116 -199 -205 0
-116 199 0
-116 205 0
117 -118 -119 0
117 118 119 0
-117 118 -119 0
-117 -118 119 0
118 -200 -205 0
-118 200 0
-118 205 0
119 120 121 0
-119 -120 0
-119 -121 0
120 -200 -204 91 0
-120 200 0
-120 204 0
-120 -91 0
121 13 -89 0
-121 -13 0
-121 89 0
122 123 -143 0
-122 -123 0
-122 143 0
123 124 126 0
-123 -124 0
-123 -126 0
124 -198 -206 -125 0
-124 198 0
-124 206 0
-124 125 0
125 -95 -115 0
125 95 115 0
-125 95 -115 0
-125 -95 115 0
126 127 -141 0
-126 -127 0
-126 141 0
127 128 130 0
-127 -128 0
-127 -130 0
128 -197 -206 -129 0
-128 197 0
-128 206 0
-128 129 0
129 -99 -113 0
129 99 113 0
-129 99 -113 0
-129 -99 113 0
130 131 -139 0
-130 -131 0
-130 139 0
131 132 134 0
-131 -132 0
-131 -134 0
132 -196 -206 -133 0
-132 196 0
-132 206 0
-132 133 0
133 -103 -111 0
133 103 111 0
-133 103 -111 0
-133 -103 111 0
134 -135 -137 0
-134 135 0
-134 137 0
135 -195 -206 -136 0
-135 195 0
-135 206 0
-135 136 0
136 107 -109 0
136 -107 109 0
-136 -107 -109 0
-136 107 109 0
137 138 -133 0
137 -138 133 0
-137 -138 -133 0
-137 138 133 0
138 -196 -206 0
-138 196 0
-138 206 0
139 140 -129 0
139 -140 129 0
-139 -140 -129 0
-139 140 129 0
140 -197 -206 0
-140 197 0
-140 206 0
141 142 -125 0
141 -142 125 0
-141 -142 -125 0
-141 142 125 0
142 -198 -206 0
-142 198 0
-142 206 0
143 144 -9 0
143 -144 9 0
-143 -144 -9 0
-143 144 9 0
144 -199 -206 0
-144 199 0
-144 206 0
145 -146 -147 0
145 146 147 0
-145 146 -147 0
-145 -146 147 0
146 -200 -206 0
-146 200 0
-146 206 0
147 148 149 0
-147 -148 0
-147 -149 0
148 -200 -205 119 0
-148 200 0
-148 205 0
-148 -119 0
149 10 -117 0
-149 -10 0
-149 117 0
150 -207 -151 0
150 207 151 0
-150 207 -151 0
-150 -207 151 0
151 152 153 0
-151 -152 0
-151 -153 0
152 -200 -206 147 0
-152 200 0
-152 206 0
-152 -147 0
153 7 -145 0
-153 -7 0
-153 145 0
154 209 -155 0
154 -209 155 0
-154 -209 -155 0
-154 209 155 0
155 -123 -143 0
155 123 143 0
-155 123 -143 0
-155 -123 143 0
156 157 159 -161 0
-156 161 0
-156 -159 0
-156 -157 0
157 210 -158 0
157 -210 158 0
-157 -210 -158 0
-157 210 158 0
158 -127 -141 0
158 127 141 0
-158 127 -141 0
-158 -127 141 0
159 211 -160 0
159 -211 160 0
-159 -211 -160 0
-159 211 160 0
160 -131 -139 0
160 131 139 0
-160 131 -139 0
-160 -131 139 0
161 213 162 164 -166 0
161 -213 162 -164 -166 0
-161 166 0
-161 213 -164 0
-161 -162 0
-161 -213 164 0
162 212 -163 0
162 -212 163 0
-162 -212 -163 0
-162 212 163 0
163 135 -137 0
163 -135 137 0
-163 -135 -137 0
-163 135 137 0
164 136 -165 0
164 -136 165 0
-164 -136 -165 0
-164 136 165 0
165 -195 -206 0
-165 195 0
-165 206 0
166 214 167 169 -172 0
166 -214 -167 169 -172 0
-166 -169 0
-166 214 -167 0
-166 172 0
-166 -214 167 0
167 108 -168 0
167 -108 168 0
-167 -108 -168 0
-167 108 168 0
168 -195 -205 0
-168 195 0
-168 205 0
169 -215 170 0
-169 215 0
-169 -170 0
170 80 -171 0
170 -80 171 0
-170 -80 -171 0
-170 80 171 0
171 -195 -204 0
-171 195 0
-171 204 0
172 216 173 174 -176 0
172 -216 173 -174 -176 0
-172 176 0
-172 216 -174 0
-172 -173 0
-172 -216 174 0
173 215 -170 0
-173 -215 0
-173 170 0
174 175 -53 0
174 -175 53 0
-174 -175 -53 0
-174 175 53 0
175 -195 -203 0
-175 195 0
-175 203 0
176 177 180 184 185 0
-176 -185 0
-176 -184 0
-176 -177 0
-176 -180 0
177 -201 -178 0
177 -195 -201 218 0
-177 201 0
-177 -218 178 0
-177 195 178 0
178 202 203 206 -179 0
-178 179 0
-178 -206 0
-178 -202 0
-178 -203 0
179 204 205 0
-179 -204 0
-179 -205 0
180 217 -181 0
180 -217 181 0
-180 -217 -181 0
-180 217 181 0
181 182 -183 0
181 -182 183 0
-181 -182 -183 0
-181 182 183 0
182 -196 -201 0
-182 196 0
-182 201 0
183 -195 -202 0
-183 195 0
-183 202 0
184 201 -218 0
184 195 -218 0
-184 218 0
-184 -195 -201 0
185 -195 196 -186 0
-185 195 0
-185 -196 0
-185 186 0
186 197 198 199 200 0
-186 -200 0
-186 -199 0
-186 -197 0
-186 -198 0
187 180 184 185 -188 0
-187 188 0
-187 -185 0
-187 -180 0
-187 -184 0
188 216 174 177 -189 0
188 -216 -174 177 -189 0
-188 -177 0
-188 216 -174 0
-188 189 0
-188 -216 174 0
189 215 190 170 -191 0
189 -215 190 -170 -191 0
-189 191 0
-189 215 -170 0
-189 -190 0
-189 -215 170 0
190 214 -167 0
-190 -214 0
-190 167 0
191 213 164 192 -193 0
191 -213 -164 192 -193 0
-191 -192 0
-191 213 -164 0
-191 193 0
-191 -213 164 0
192 -214 167 0
-192 214 0
-192 -167 0
193 159 162 -194 0
-193 194 0
-193 -162 0
-193 -159 0
194 5 150 154 157 0
-194 -157 0
-194 -154 0
-194 -5 0
-194 -150 0
219 0
2 -4 0
-2 4 0
3 -187 0
-3 187 0
3 0

